(set-logic QF_NRA)
; benchmark generated from python API
(set-info :status unknown)
(declare-fun v1y () Real)
(declare-fun oy () Real)
(declare-fun v1x () Real)
(declare-fun R2 () Real)
(declare-fun y1y () Real)
(declare-fun xy () Real)
(declare-fun y1x () Real)
(declare-fun xx () Real)
(declare-fun rho2 () Real)
(declare-fun y2y () Real)
(declare-fun y2x () Real)
(declare-fun y3y () Real)
(declare-fun y3x () Real)
(declare-fun b1y () Real)
(declare-fun b1x () Real)
(assert
 (let ((?x345 (* (- 1.0) v1x)))
 (let ((?x212 (* (- 1.0) R2)))
 (let ((?x96 (+ (+ (+ (+ (/ 1.0 4.0) (* oy oy)) (* v1x v1x)) (* v1y v1y)) ?x212)))
 (= (+ (+ ?x96 ?x345) (* (* (- 2.0) oy) v1y)) 0.0)))))
(assert
 (= (+ (+ (/ 1.0 4.0) (* oy oy)) (* (- 1.0) R2)) 0.0))
(assert
 (let ((?x400 (* (- 1.0) rho2)))
 (let ((?x22 (* y1y y1y)))
 (let ((?x303 (+ (+ (+ (+ (* xx xx) (* xy xy)) (* y1x y1x)) ?x22) ?x400)))
 (= (+ (+ ?x303 (* (* (- 2.0) xx) y1x)) (* (* (- 2.0) xy) y1y)) 0.0)))))
(assert
 (let ((?x400 (* (- 1.0) rho2)))
 (let ((?x155 (* y2y y2y)))
 (let ((?x443 (+ (+ (+ (+ (* xx xx) (* xy xy)) (* y2x y2x)) ?x155) ?x400)))
 (= (+ (+ ?x443 (* (* (- 2.0) xx) y2x)) (* (* (- 2.0) xy) y2y)) 0.0)))))
(assert
 (let ((?x400 (* (- 1.0) rho2)))
 (let ((?x312 (* y3y y3y)))
 (let ((?x384 (+ (+ (+ (+ (* xx xx) (* xy xy)) (* y3x y3x)) ?x312) ?x400)))
 (= (+ (+ ?x384 (* (* (- 2.0) xx) y3x)) (* (* (- 2.0) xy) y3y)) 0.0)))))
(assert
 (let ((?x400 (* (- 1.0) rho2)))
 (let ((?x13 (* xy xy)))
 (let ((?x32 (+ (+ (+ (+ (* b1x b1x) (* b1y b1y)) (* xx xx)) ?x13) ?x400)))
 (= (+ (+ ?x32 (* (* (- 2.0) b1x) xx)) (* (* (- 2.0) b1y) xy)) 0.0)))))
(assert
 (let ((?x295 (+ (+ (+ (+ (- (/ 1.0 4.0)) R2) xx) (* (- 1.0) (* oy oy))) (* (- 1.0) (* xx xx)))))
 (>= (+ (+ ?x295 (* (- 1.0) (* xy xy))) (* (* 2.0 oy) xy)) 0.0)))
(assert
 (let ((?x389 (+ (+ (+ (+ (- (/ 1.0 4.0)) R2) y1x) (* (- 1.0) (* oy oy))) (* (- 1.0) (* y1x y1x)))))
 (>= (+ (+ ?x389 (* (- 1.0) (* y1y y1y))) (* (* 2.0 oy) y1y)) 0.0)))
(assert
 (let ((?x146 (+ (+ (+ (+ (- (/ 1.0 4.0)) R2) y2x) (* (- 1.0) (* oy oy))) (* (- 1.0) (* y2x y2x)))))
 (>= (+ (+ ?x146 (* (- 1.0) (* y2y y2y))) (* (* 2.0 oy) y2y)) 0.0)))
(assert
 (let ((?x382 (+ (+ (+ (+ (- (/ 1.0 4.0)) R2) y3x) (* (- 1.0) (* oy oy))) (* (- 1.0) (* y3x y3x)))))
 (>= (+ (+ ?x382 (* (- 1.0) (* y3y y3y))) (* (* 2.0 oy) y3y)) 0.0)))
(assert
 (let ((?x230 (* oy oy)))
 (let ((?x92 (* (- 1.0) ?x230)))
 (let ((?x171 (+ (+ (+ (+ (- (/ 1.0 4.0)) R2) b1x) (* (- 1.0) (* b1x b1x))) (* (- 1.0) (* b1y b1y)))))
 (>= (+ (+ ?x171 ?x92) (* (* 2.0 b1y) oy)) 0.0)))))
(assert
 (>= (+ (+ (* v1x v1x) (* v1y v1y)) (* (- 1.0) v1x)) 0.0))
(assert
 (>= v1x 0.0))
(assert
 (>= (+ 1.0 (* (- 1.0) v1x)) 0.0))
(assert
 (> R2 0.0))
(assert
 (> rho2 0.0))
(assert
 (let ((?x46 (* (- 1.0) v1y)))
 (let ((?x9 (* ?x46 xy)))
 (> ?x9 0.0))))
(assert
 (let ((?x304 (+ (+ (* v1y v1y) (* (* (- 1.0) v1y) xy)) (* (* (- 1.0) xx) (* v1y v1y)))))
 (> (+ ?x304 (* (* v1x v1y) xy)) 0.0)))
(assert
 (> (+ (* xx (* v1y v1y)) (* (* (* (- 1.0) v1x) v1y) xy)) 0.0))
(assert
 (let ((?x46 (* (- 1.0) v1y)))
 (let ((?x386 (* ?x46 y1y)))
 (> ?x386 0.0))))
(assert
 (let ((?x84 (+ (+ (* v1y v1y) (* (* (- 1.0) v1y) y1y)) (* (* (- 1.0) y1x) (* v1y v1y)))))
 (> (+ ?x84 (* (* v1x v1y) y1y)) 0.0)))
(assert
 (> (+ (* y1x (* v1y v1y)) (* (* (* (- 1.0) v1x) v1y) y1y)) 0.0))
(assert
 (let ((?x46 (* (- 1.0) v1y)))
 (let ((?x57 (* ?x46 y2y)))
 (> ?x57 0.0))))
(assert
 (let ((?x349 (+ (+ (* v1y v1y) (* (* (- 1.0) v1y) y2y)) (* (* (- 1.0) y2x) (* v1y v1y)))))
 (> (+ ?x349 (* (* v1x v1y) y2y)) 0.0)))
(assert
 (> (+ (* y2x (* v1y v1y)) (* (* (* (- 1.0) v1x) v1y) y2y)) 0.0))
(assert
 (let ((?x46 (* (- 1.0) v1y)))
 (let ((?x286 (* ?x46 y3y)))
 (> ?x286 0.0))))
(assert
 (let ((?x218 (+ (+ (* v1y v1y) (* (* (- 1.0) v1y) y3y)) (* (* (- 1.0) y3x) (* v1y v1y)))))
 (> (+ ?x218 (* (* v1x v1y) y3y)) 0.0)))
(assert
 (> (+ (* y3x (* v1y v1y)) (* (* (* (- 1.0) v1x) v1y) y3y)) 0.0))
(assert
 (> (* b1y v1y) 0.0))
(assert
 (let ((?x30 (* b1y v1x)))
 (let ((?x270 (* ?x30 v1y)))
 (let ((?x353 (+ (+ (* v1y v1y) (* (* (- 1.0) b1x) (* v1y v1y))) (* (* (- 1.0) b1y) v1y))))
 (> (+ ?x353 ?x270) 0.0)))))
(assert
 (> (+ (* (* (- 1.0) b1x) (* v1y v1y)) (* (* b1y v1x) v1y)) 0.0))
(assert
 (> (+ (* xx y1y) (* (* (- 1.0) xy) y1x)) 0.0))
(assert
 (> (+ (* xx y2y) (* (* (- 1.0) xy) y2x)) 0.0))
(assert
 (> (+ (* xx y3y) (* (* (- 1.0) xy) y3x)) 0.0))
(assert
 (let ((?x243 (* (- 1.0) xy)))
 (> ?x243 0.0)))
(assert
 (> (+ (* v1y xx) (* (* (- 1.0) v1x) xy)) 0.0))
(assert
 (> (+ (* b1y xx) (* (* (- 1.0) b1x) xy)) 0.0))
(assert
 (> (+ (* y1x y2y) (* (* (- 1.0) y1y) y2x)) 0.0))
(assert
 (> (+ (* y1x y3y) (* (* (- 1.0) y1y) y3x)) 0.0))
(assert
 (let ((?x233 (* (- 1.0) y1y)))
 (> ?x233 0.0)))
(assert
 (> (+ (* v1y y1x) (* (* (- 1.0) v1x) y1y)) 0.0))
(assert
 (> (+ (* b1y y1x) (* (* (- 1.0) b1x) y1y)) 0.0))
(assert
 (> (+ (* y2x y3y) (* (* (- 1.0) y2y) y3x)) 0.0))
(assert
 (let ((?x240 (* (- 1.0) y2y)))
 (> ?x240 0.0)))
(assert
 (> (+ (* v1y y2x) (* (* (- 1.0) v1x) y2y)) 0.0))
(assert
 (> (+ (* b1y y2x) (* (* (- 1.0) b1x) y2y)) 0.0))
(assert
 (let ((?x23 (* (- 1.0) y3y)))
 (> ?x23 0.0)))
(assert
 (> (+ (* v1y y3x) (* (* (- 1.0) v1x) y3y)) 0.0))
(assert
 (> (+ (* b1y y3x) (* (* (- 1.0) b1x) y3y)) 0.0))
(assert
 (> v1y 0.0))
(assert
 (> b1y 0.0))
(assert
 (> (+ (* b1y v1x) (* (* (- 1.0) b1x) v1y)) 0.0))
(assert
 (let ((?x233 (* (- 1.0) y1y)))
 (let ((?x115 (* ?x233 y2x)))
 (let ((?x243 (* (- 1.0) xy)))
 (let ((?x143 (* ?x243 y1x)))
 (let ((?x87 (+ (+ (+ (* xx y1y) (* xy y2x)) (* y1x y2y)) (* (* (- 1.0) xx) y2y))))
 (> (+ (+ ?x87 ?x143) ?x115) 0.0)))))))
(assert
 (let ((?x233 (* (- 1.0) y1y)))
 (let ((?x47 (* ?x233 y3x)))
 (let ((?x243 (* (- 1.0) xy)))
 (let ((?x143 (* ?x243 y1x)))
 (let ((?x266 (* (- 1.0) xx)))
 (let ((?x336 (* ?x266 y3y)))
 (let ((?x347 (+ (+ (+ (+ (* xx y1y) (* xy y3x)) (* y1x y3y)) ?x336) ?x143)))
 (> (+ ?x347 ?x47) 0.0)))))))))
(assert
 (let ((?x243 (* (- 1.0) xy)))
 (let ((?x143 (* ?x243 y1x)))
 (> (+ (+ (+ xy (* (- 1.0) y1y)) (* xx y1y)) ?x143) 0.0))))
(assert
 (let ((?x243 (* (- 1.0) xy)))
 (let ((?x143 (* ?x243 y1x)))
 (let ((?x46 (* (- 1.0) v1y)))
 (let ((?x325 (* ?x46 xx)))
 (let ((?x345 (* (- 1.0) v1x)))
 (let ((?x125 (* ?x345 y1y)))
 (let ((?x476 (+ (+ (+ (+ (* v1x xy) (* v1y y1x)) (* xx y1y)) ?x125) ?x325)))
 (> (+ ?x476 ?x143) 0.0)))))))))
(assert
 (let ((?x243 (* (- 1.0) xy)))
 (let ((?x143 (* ?x243 y1x)))
 (let ((?x299 (* (- 1.0) b1y)))
 (let ((?x163 (* ?x299 xx)))
 (let ((?x108 (* (- 1.0) b1x)))
 (let ((?x244 (* ?x108 y1y)))
 (let ((?x416 (+ (+ (+ (+ (* b1x xy) (* b1y y1x)) (* xx y1y)) ?x244) ?x163)))
 (> (+ ?x416 ?x143) 0.0)))))))))
(assert
 (let ((?x240 (* (- 1.0) y2y)))
 (let ((?x102 (* ?x240 y3x)))
 (let ((?x243 (* (- 1.0) xy)))
 (let ((?x369 (* ?x243 y2x)))
 (let ((?x266 (* (- 1.0) xx)))
 (let ((?x336 (* ?x266 y3y)))
 (let ((?x148 (+ (+ (+ (+ (* xx y2y) (* xy y3x)) (* y2x y3y)) ?x336) ?x369)))
 (> (+ ?x148 ?x102) 0.0)))))))))
(assert
 (let ((?x243 (* (- 1.0) xy)))
 (let ((?x369 (* ?x243 y2x)))
 (> (+ (+ (+ xy (* (- 1.0) y2y)) (* xx y2y)) ?x369) 0.0))))
(assert
 (let ((?x243 (* (- 1.0) xy)))
 (let ((?x369 (* ?x243 y2x)))
 (let ((?x46 (* (- 1.0) v1y)))
 (let ((?x325 (* ?x46 xx)))
 (let ((?x345 (* (- 1.0) v1x)))
 (let ((?x221 (* ?x345 y2y)))
 (let ((?x176 (+ (+ (+ (+ (* v1x xy) (* v1y y2x)) (* xx y2y)) ?x221) ?x325)))
 (> (+ ?x176 ?x369) 0.0)))))))))
(assert
 (let ((?x243 (* (- 1.0) xy)))
 (let ((?x369 (* ?x243 y2x)))
 (let ((?x299 (* (- 1.0) b1y)))
 (let ((?x163 (* ?x299 xx)))
 (let ((?x108 (* (- 1.0) b1x)))
 (let ((?x454 (* ?x108 y2y)))
 (let ((?x222 (+ (+ (+ (+ (* b1x xy) (* b1y y2x)) (* xx y2y)) ?x454) ?x163)))
 (> (+ ?x222 ?x369) 0.0)))))))))
(assert
 (let ((?x243 (* (- 1.0) xy)))
 (let ((?x335 (* ?x243 y3x)))
 (> (+ (+ (+ xy (* (- 1.0) y3y)) (* xx y3y)) ?x335) 0.0))))
(assert
 (let ((?x243 (* (- 1.0) xy)))
 (let ((?x335 (* ?x243 y3x)))
 (let ((?x46 (* (- 1.0) v1y)))
 (let ((?x325 (* ?x46 xx)))
 (let ((?x345 (* (- 1.0) v1x)))
 (let ((?x322 (* ?x345 y3y)))
 (let ((?x186 (+ (+ (+ (+ (* v1x xy) (* v1y y3x)) (* xx y3y)) ?x322) ?x325)))
 (> (+ ?x186 ?x335) 0.0)))))))))
(assert
 (let ((?x243 (* (- 1.0) xy)))
 (let ((?x335 (* ?x243 y3x)))
 (let ((?x299 (* (- 1.0) b1y)))
 (let ((?x163 (* ?x299 xx)))
 (let ((?x108 (* (- 1.0) b1x)))
 (let ((?x206 (* ?x108 y3y)))
 (let ((?x188 (+ (+ (+ (+ (* b1x xy) (* b1y y3x)) (* xx y3y)) ?x206) ?x163)))
 (> (+ ?x188 ?x335) 0.0)))))))))
(assert
 (let ((?x46 (* (- 1.0) v1y)))
 (let ((?x325 (* ?x46 xx)))
 (> (+ (+ (+ v1y (* (- 1.0) xy)) (* v1x xy)) ?x325) 0.0))))
(assert
 (let ((?x299 (* (- 1.0) b1y)))
 (let ((?x163 (* ?x299 xx)))
 (> (+ (+ (+ b1y (* (- 1.0) xy)) (* b1x xy)) ?x163) 0.0))))
(assert
 (let ((?x345 (* (- 1.0) v1x)))
 (let ((?x339 (* ?x345 xy)))
 (let ((?x299 (* (- 1.0) b1y)))
 (let ((?x163 (* ?x299 xx)))
 (let ((?x108 (* (- 1.0) b1x)))
 (let ((?x452 (* ?x108 v1y)))
 (let ((?x123 (+ (+ (+ (+ (* b1x xy) (* b1y v1x)) (* v1y xx)) ?x452) ?x163)))
 (> (+ ?x123 ?x339) 0.0)))))))))
(assert
 (let ((?x240 (* (- 1.0) y2y)))
 (let ((?x102 (* ?x240 y3x)))
 (let ((?x233 (* (- 1.0) y1y)))
 (let ((?x115 (* ?x233 y2x)))
 (let ((?x272 (+ (+ (+ (* y1x y2y) (* y1y y3x)) (* y2x y3y)) (* (* (- 1.0) y1x) y3y))))
 (> (+ (+ ?x272 ?x115) ?x102) 0.0)))))))
(assert
 (let ((?x233 (* (- 1.0) y1y)))
 (let ((?x115 (* ?x233 y2x)))
 (> (+ (+ (+ y1y (* (- 1.0) y2y)) (* y1x y2y)) ?x115) 0.0))))
(assert
 (let ((?x233 (* (- 1.0) y1y)))
 (let ((?x115 (* ?x233 y2x)))
 (let ((?x46 (* (- 1.0) v1y)))
 (let ((?x456 (* ?x46 y1x)))
 (let ((?x345 (* (- 1.0) v1x)))
 (let ((?x221 (* ?x345 y2y)))
 (let ((?x144 (+ (+ (+ (+ (* v1x y1y) (* v1y y2x)) (* y1x y2y)) ?x221) ?x456)))
 (> (+ ?x144 ?x115) 0.0)))))))))
(assert
 (let ((?x233 (* (- 1.0) y1y)))
 (let ((?x115 (* ?x233 y2x)))
 (let ((?x299 (* (- 1.0) b1y)))
 (let ((?x130 (* ?x299 y1x)))
 (let ((?x108 (* (- 1.0) b1x)))
 (let ((?x454 (* ?x108 y2y)))
 (let ((?x474 (+ (+ (+ (+ (* b1x y1y) (* b1y y2x)) (* y1x y2y)) ?x454) ?x130)))
 (> (+ ?x474 ?x115) 0.0)))))))))
(assert
 (let ((?x233 (* (- 1.0) y1y)))
 (let ((?x47 (* ?x233 y3x)))
 (> (+ (+ (+ y1y (* (- 1.0) y3y)) (* y1x y3y)) ?x47) 0.0))))
(assert
 (let ((?x233 (* (- 1.0) y1y)))
 (let ((?x47 (* ?x233 y3x)))
 (let ((?x46 (* (- 1.0) v1y)))
 (let ((?x456 (* ?x46 y1x)))
 (let ((?x345 (* (- 1.0) v1x)))
 (let ((?x322 (* ?x345 y3y)))
 (let ((?x449 (+ (+ (+ (+ (* v1x y1y) (* v1y y3x)) (* y1x y3y)) ?x322) ?x456)))
 (> (+ ?x449 ?x47) 0.0)))))))))
(assert
 (let ((?x233 (* (- 1.0) y1y)))
 (let ((?x47 (* ?x233 y3x)))
 (let ((?x299 (* (- 1.0) b1y)))
 (let ((?x130 (* ?x299 y1x)))
 (let ((?x108 (* (- 1.0) b1x)))
 (let ((?x206 (* ?x108 y3y)))
 (let ((?x116 (+ (+ (+ (+ (* b1x y1y) (* b1y y3x)) (* y1x y3y)) ?x206) ?x130)))
 (> (+ ?x116 ?x47) 0.0)))))))))
(assert
 (let ((?x46 (* (- 1.0) v1y)))
 (let ((?x456 (* ?x46 y1x)))
 (> (+ (+ (+ v1y (* (- 1.0) y1y)) (* v1x y1y)) ?x456) 0.0))))
(assert
 (let ((?x299 (* (- 1.0) b1y)))
 (let ((?x130 (* ?x299 y1x)))
 (> (+ (+ (+ b1y (* (- 1.0) y1y)) (* b1x y1y)) ?x130) 0.0))))
(assert
 (let ((?x345 (* (- 1.0) v1x)))
 (let ((?x125 (* ?x345 y1y)))
 (let ((?x299 (* (- 1.0) b1y)))
 (let ((?x130 (* ?x299 y1x)))
 (let ((?x108 (* (- 1.0) b1x)))
 (let ((?x452 (* ?x108 v1y)))
 (let ((?x208 (+ (+ (+ (+ (* b1x y1y) (* b1y v1x)) (* v1y y1x)) ?x452) ?x130)))
 (> (+ ?x208 ?x125) 0.0)))))))))
(assert
 (let ((?x240 (* (- 1.0) y2y)))
 (let ((?x102 (* ?x240 y3x)))
 (> (+ (+ (+ y2y (* (- 1.0) y3y)) (* y2x y3y)) ?x102) 0.0))))
(assert
 (let ((?x240 (* (- 1.0) y2y)))
 (let ((?x102 (* ?x240 y3x)))
 (let ((?x46 (* (- 1.0) v1y)))
 (let ((?x261 (* ?x46 y2x)))
 (let ((?x345 (* (- 1.0) v1x)))
 (let ((?x322 (* ?x345 y3y)))
 (let ((?x461 (+ (+ (+ (+ (* v1x y2y) (* v1y y3x)) (* y2x y3y)) ?x322) ?x261)))
 (> (+ ?x461 ?x102) 0.0)))))))))
(assert
 (let ((?x240 (* (- 1.0) y2y)))
 (let ((?x102 (* ?x240 y3x)))
 (let ((?x299 (* (- 1.0) b1y)))
 (let ((?x459 (* ?x299 y2x)))
 (let ((?x108 (* (- 1.0) b1x)))
 (let ((?x206 (* ?x108 y3y)))
 (let ((?x127 (+ (+ (+ (+ (* b1x y2y) (* b1y y3x)) (* y2x y3y)) ?x206) ?x459)))
 (> (+ ?x127 ?x102) 0.0)))))))))
(assert
 (let ((?x46 (* (- 1.0) v1y)))
 (let ((?x261 (* ?x46 y2x)))
 (> (+ (+ (+ v1y (* (- 1.0) y2y)) (* v1x y2y)) ?x261) 0.0))))
(assert
 (let ((?x299 (* (- 1.0) b1y)))
 (let ((?x459 (* ?x299 y2x)))
 (> (+ (+ (+ b1y (* (- 1.0) y2y)) (* b1x y2y)) ?x459) 0.0))))
(assert
 (let ((?x345 (* (- 1.0) v1x)))
 (let ((?x221 (* ?x345 y2y)))
 (let ((?x299 (* (- 1.0) b1y)))
 (let ((?x459 (* ?x299 y2x)))
 (let ((?x108 (* (- 1.0) b1x)))
 (let ((?x452 (* ?x108 v1y)))
 (let ((?x490 (+ (+ (+ (+ (* b1x y2y) (* b1y v1x)) (* v1y y2x)) ?x452) ?x459)))
 (> (+ ?x490 ?x221) 0.0)))))))))
(assert
 (let ((?x43 (+ (+ (+ v1y (* (- 1.0) y3y)) (* v1x y3y)) (* (* (- 1.0) v1y) y3x))))
 (> ?x43 0.0)))
(assert
 (let ((?x299 (* (- 1.0) b1y)))
 (let ((?x241 (* ?x299 y3x)))
 (> (+ (+ (+ b1y (* (- 1.0) y3y)) (* b1x y3y)) ?x241) 0.0))))
(assert
 (let ((?x345 (* (- 1.0) v1x)))
 (let ((?x322 (* ?x345 y3y)))
 (let ((?x299 (* (- 1.0) b1y)))
 (let ((?x241 (* ?x299 y3x)))
 (let ((?x108 (* (- 1.0) b1x)))
 (let ((?x452 (* ?x108 v1y)))
 (let ((?x122 (+ (+ (+ (+ (* b1x y3y) (* b1y v1x)) (* v1y y3x)) ?x452) ?x241)))
 (> (+ ?x122 ?x322) 0.0)))))))))
(assert
 (let ((?x108 (* (- 1.0) b1x)))
(let ((?x452 (* ?x108 v1y)))
(> (+ (+ (+ v1y (* (- 1.0) b1y)) (* b1y v1x)) ?x452) 0.0))))
(check-sat)
